(set-logic QF_FPBV)

(declare-fun x () (_ FloatingPoint  5  11))
(declare-fun y () (_ FloatingPoint  5  11))
(declare-fun z () (_ FloatingPoint  5  11))
(declare-fun new () (_ FloatingPoint  5  11))
(assert (fp.eq x y))
(assert (fp.eq y (fp.add roundNearestTiesToEven z ((_ to_fp 05 11) roundNearestTiesToEven 0.1 2))))
(assert (fp.eq new ((_ to_fp 05 11) roundNearestTiesToEven 0.1 2)))
(assert (fp.geq y z))
(assert (fp.leq y z))
(assert (fp.leq x y))
(assert (fp.eq y z))
;(check-sat)
;(get-model)
;(push)
;(pop)
(declare-fun a ((_ FloatingPoint  5  11)) (_ FloatingPoint  5  11))
(assert (fp.eq (a x)(fp.add  RTP x x)))
(check-sat)
;(push)
;(exit)
